&control
    calculation = 'scf'
    restart_mode = 'from_scratch'
    prefix = 'cu_fcc'
    pseudo_dir = './'
    outdir = './tmp'
    tprnfor = .false.
    tstress = .false.
    verbosity = 'high'
/
&system
    ibrav = 2
    celldm(1) = 6.831363
    nat = 1
    ntyp = 1
    ecutwfc = 35.0
    ecutrho = 280.0
    occupations = 'smearing'
    smearing = 'mv'
    degauss = 0.01
/
&electrons
    conv_thr = 1.0d-8
    mixing_beta = 0.7
    electron_maxstep = 100
/
&ions
/
&cell
/
ATOMIC_SPECIES
 Cu 63.546 Cu.pbe-dn-kjpaw_psl.1.0.0.UPF
ATOMIC_POSITIONS crystal
 Cu 0.0 0.0 0.0
K_POINTS automatic
 10 10 10 0 0 0
