# LAMMPS input script for aluminum melting point calculation
# Using Zhou EAM potential
# Loop over temperatures

# Units
units metal

# Atom style
atom_style atomic

# Create box and lattice
lattice fcc 4.041
region box block 0 6 0 6 0 6
create_box 1 box
create_atoms 1 box

# Define potential
pair_style eam/alloy
pair_coeff * * /usr/share/lammps/potentials/Al_zhou.eam.alloy Al

# Velocity initialization
velocity all create 300.0 12345 rot yes dist gaussian

# Neighbor settings
neighbor 2.0 bin
neigh_modify delay 0 every 1 check yes

# Thermodynamic output
thermo 100
thermo_style custom step temp pe ke etotal press density vol

# Minimization
minimize 1e-10 1e-10 1000 1000

# Equilibration at 300K and 1 atm (NPT)
reset_timestep 0
timestep 0.001
fix 1 all npt temp 300 300 0.1 iso 0 0 1.0
run 5000
unfix 1

# Define temperature list as index variable
variable T index 300 400 500

# Setup compute for potential energy per atom
compute peatom all pe/atom
compute pe all reduce sum c_peatom
variable peatom equal c_pe/atoms
variable density equal density

# Output file
variable myTemp equal ${T}
fix 2 all print 100 "${myTemp} ${peatom} ${density}" file thermo.out screen no

# Loop over temperatures
label loop
variable Tcur equal ${T}
print "Running temperature ${Tcur}"
fix 3 all npt temp ${Tcur} ${Tcur} 0.1 iso 0 0 1.0
run 500
unfix 3
next T
jump SELF loop

# After loop
write_data final.data
write_dump all atom final.dump
print "All temperatures done"
