&DOS
  prefix   = 'NiO'
  outdir   = './outdir'
  fildos   = 'NiO.dos'
  Emin     = -10.0
  Emax     =  20.0
  DeltaE   =  0.01
/
