# Test script for NaCl solution
units real
atom_style full
dimension 3
boundary p p p
newton on

read_data data.nacl

pair_style lj/cut/coul/long 10.0
pair_coeff 1 1 0.1554 3.166
pair_coeff 2 2 0.0 0.0
pair_coeff 3 3 0.130 2.35
pair_coeff 4 4 0.100 4.40
pair_modify mix arithmetic
pair_coeff * * 0.0 0.0

bond_style harmonic
angle_style harmonic
bond_coeff 1 1000.0 1.0
angle_coeff 1 100.0 109.47

kspace_style pppm 1.0e-4

fix shake all shake 0.0001 20 0 b 1 a 1

thermo 10
thermo_style custom step temp press density

min_style cg
minimize 1.0e-4 1.0e-6 100 1000
run 0
print "Test successful"