&control
    calculation = 'bands'
    restart_mode = 'restart'
    prefix = 'nio'
    pseudo_dir = '../pseudo'
    outdir = './tmp'
    tprnfor = .false.
    tstress = .false.
    verbosity = 'high'
/
&system
    ibrav = 2
    celldm(1) = 7.88016108
    nat = 2
    ntyp = 2
    ecutwfc = 75.0
    ecutrho = 476.0
    occupations = 'smearing'
    smearing = 'mv'
    degauss = 0.01
    nspin = 1
    nbnd = 30
/
&electrons
    conv_thr = 1.0d-8
    mixing_beta = 0.7
    electron_maxstep = 100
/
&ions
/
&cell
/
ATOMIC_SPECIES
 Ni 58.6934 Ni.pbe-spn-kjpaw_psl.1.0.0.UPF
 O  15.9994 O.pbe-n-kjpaw_psl.1.0.0.UPF
ATOMIC_POSITIONS crystal
 Ni 0.0 0.0 0.0
 O  0.5 0.5 0.5
K_POINTS crystal
80
0.0000000000 0.0000000000 0.0000000000 0.0
0.0263157895 0.0263157895 0.0000000000 0.0
0.0526315789 0.0526315789 0.0000000000 0.0
0.0789473684 0.0789473684 0.0000000000 0.0
0.1052631579 0.1052631579 0.0000000000 0.0
0.1315789474 0.1315789474 0.0000000000 0.0
0.1578947368 0.1578947368 0.0000000000 0.0
0.1842105263 0.1842105263 0.0000000000 0.0
0.2105263158 0.2105263158 0.0000000000 0.0
0.2368421053 0.2368421053 0.0000000000 0.0
0.2631578947 0.2631578947 0.0000000000 0.0
0.2894736842 0.2894736842 0.0000000000 0.0
0.3157894737 0.3157894737 0.0000000000 0.0
0.3421052632 0.3421052632 0.0000000000 0.0
0.3684210526 0.3684210526 0.0000000000 0.0
0.3947368421 0.3947368421 0.0000000000 0.0
0.4210526316 0.4210526316 0.0000000000 0.0
0.4473684211 0.4473684211 0.0000000000 0.0
0.4736842105 0.4736842105 0.0000000000 0.0
0.5000000000 0.5000000000 0.0000000000 0.0
0.5000000000 0.5000000000 0.0000000000 0.0
0.4934210526 0.5131578947 0.0197368421 0.0
0.4868421053 0.5263157895 0.0394736842 0.0
0.4802631579 0.5394736842 0.0592105263 0.0
0.4736842105 0.5526315789 0.0789473684 0.0
0.4671052632 0.5657894737 0.0986842105 0.0
0.4605263158 0.5789473684 0.1184210526 0.0
0.4539473684 0.5921052632 0.1381578947 0.0
0.4473684211 0.6052631579 0.1578947368 0.0
0.4407894737 0.6184210526 0.1776315789 0.0
0.4342105263 0.6315789474 0.1973684211 0.0
0.4276315789 0.6447368421 0.2171052632 0.0
0.4210526316 0.6578947368 0.2368421053 0.0
0.4144736842 0.6710526316 0.2565789474 0.0
0.4078947368 0.6842105263 0.2763157895 0.0
0.4013157895 0.6973684211 0.2960526316 0.0
0.3947368421 0.7105263158 0.3157894737 0.0
0.3881578947 0.7236842105 0.3355263158 0.0
0.3815789474 0.7368421053 0.3552631579 0.0
0.3750000000 0.7500000000 0.3750000000 0.0
0.3750000000 0.7500000000 0.3750000000 0.0
0.3552631579 0.7105263158 0.3552631579 0.0
0.3355263158 0.6710526316 0.3355263158 0.0
0.3157894737 0.6315789474 0.3157894737 0.0
0.2960526316 0.5921052632 0.2960526316 0.0
0.2763157895 0.5526315789 0.2763157895 0.0
0.2565789474 0.5131578947 0.2565789474 0.0
0.2368421053 0.4736842105 0.2368421053 0.0
0.2171052632 0.4342105263 0.2171052632 0.0
0.1973684211 0.3947368421 0.1973684211 0.0
0.1776315789 0.3552631579 0.1776315789 0.0
0.1578947368 0.3157894737 0.1578947368 0.0
0.1381578947 0.2763157895 0.1381578947 0.0
0.1184210526 0.2368421053 0.1184210526 0.0
0.0986842105 0.1973684211 0.0986842105 0.0
0.0789473684 0.1578947368 0.0789473684 0.0
0.0592105263 0.1184210526 0.0592105263 0.0
0.0394736842 0.0789473684 0.0394736842 0.0
0.0197368421 0.0394736842 0.0197368421 0.0
0.0000000000 0.0000000000 0.0000000000 0.0
0.0000000000 0.0000000000 0.0000000000 0.0
0.0263157895 0.0263157895 0.0263157895 0.0
0.0526315789 0.0526315789 0.0526315789 0.0
0.0789473684 0.0789473684 0.0789473684 0.0
0.1052631579 0.1052631579 0.1052631579 0.0
0.1315789474 0.1315789474 0.1315789474 0.0
0.1578947368 0.1578947368 0.1578947368 0.0
0.1842105263 0.1842105263 0.1842105263 0.0
0.2105263158 0.2105263158 0.2105263158 0.0
0.2368421053 0.2368421053 0.2368421053 0.0
0.2631578947 0.2631578947 0.2631578947 0.0
0.2894736842 0.2894736842 0.2894736842 0.0
0.3157894737 0.3157894737 0.3157894737 0.0
0.3421052632 0.3421052632 0.3421052632 0.0
0.3684210526 0.3684210526 0.3684210526 0.0
0.3947368421 0.3947368421 0.3947368421 0.0
0.4210526316 0.4210526316 0.4210526316 0.0
0.4473684211 0.4473684211 0.4473684211 0.0
0.4736842105 0.4736842105 0.4736842105 0.0
0.5000000000 0.5000000000 0.5000000000 0.0
